NAME : pr10.tsp
COMMENT : 10-city problem
TYPE : TSP 
DIMENSION : 10
EDGE_WEIGHT_TYPE : CEIL_2D
NODE_COORD_SECTION 
1  4.736000e+04 9.983500e+04 
2  1.526900e+04 2.041500e+04 
3  9.022700e+04 2.230000e+04 
4  5.239100e+04 5.313500e+04 
5  1.137400e+04 8.273500e+04 
6  6.895300e+04 9.060100e+04 
7  7.300100e+04 1.094600e+04 
8  5.343700e+04 3.974600e+04 
9  2.166000e+03 1.752700e+04 
10 3.240600e+04 9.718300e+04 
EOF 
